Maximize
 obj: 276837 x0 + 315852 x1 + 248133 x2 + 536959 x3 + 779348 x4 + 741580 x5 + 546096 x6 + 431952 x7 + 410701 x8 + 393585 x9 + 307745 x10 + 129162 x11 + 67939 x12 + 452863 x13 + 615657 x14 + 521216 x15 + 519069 x16 + 484579 x17 + 391648 x18 + 18330 x19 + 530119 x20 + 686113 x21 + 605389 x22 + 529592 x23 + 512742 x24 + 428890 x25 + 404317 x26 + 117746 x27 + 136708 x28 + 1395039 x29 + 1664551 x30 + 1588985 x31 + 1558698 x32 + 1503761 x33 + 1480263 x34 + 1466736 x35 + 1459645 x36 + 1408947 x37 + 1397232 x38 + 1350529 x39 + 96466 x40 + 53776 x41 + 71666 x42 + 99636 x43 + 206381 x44 + 190839 x45 + 158655 x46 + 256885 x47 + 345249 x48 + 253002 x49 + 195182 x50 + 948696 x51 + 1254626 x52 + 1054613 x53 + 1022889 x54 + 1022623 x55 + 981119 x56 + 960071 x57 + 944682 x58 + 866281 x59 + 790918 x60 + 767395 x61 
Subject To
 c1:  x21 +  x37  <= 1
 c2:  x18 +  x24 +  x31 +  x32 +  x35  <= 1
 c3:  x23 +  x32 +  x35  <= 1
 c4:  x17 +  x20 +  x22  <= 1
 c5:  x53 +  x58  <= 1
 c6:  x10 +  x29 +  x37  <= 1
 c7:  x11 +  x29 +  x31 +  x34 +  x36 +  x38 +  x55  <= 1
 c8:  x11 +  x29 +  x30 +  x33 +  x57 +  x59 +  x60  <= 1
 c9:  x8 +  x25 +  x34 +  x57  <= 1
 c10:  x4 +  x37 +  x38 +  x56  <= 1
 c11:  x20 +  x25 +  x26 +  x46 +  x59  <= 1
 c12:  x0 +  x2 +  x7 +  x29 +  x36 +  x37 +  x39 +  x41  <= 1
 c13:  x15 +  x24 +  x25 +  x30 +  x36 +  x37 +  x38 +  x61  <= 1
 c14:  x8 +  x29 +  x32 +  x37  <= 1
 c15:  x29 +  x39 +  x40 +  x41 +  x50 +  x58 +  x60  <= 1
 c16:  x5 +  x31 +  x35 +  x36 +  x48 +  x54 +  x59 +  x60  <= 1
 c17:  x21 +  x29 +  x31 +  x38 +  x59  <= 1
 c18:  x18 +  x53  <= 1
 c19:  x6 +  x13 +  x14 +  x29 +  x30 +  x31 +  x32 +  x39  <= 1
 c20:  x35 +  x39 +  x61  <= 1
 c21:  x19 +  x20 +  x23 +  x29 +  x30 +  x34 +  x51 +  x60  <= 1
 c22:  x9 +  x24 +  x31 +  x33 +  x35 +  x37 +  x52 +  x54  <= 1
 c23:  x37 +  x38 +  x39 +  x51 +  x53 +  x56  <= 1
 c24:  x4 +  x7 +  x10 +  x20 +  x22 +  x60  <= 1
 c25:  x5 +  x39 +  x45 +  x61  <= 1
 c26:  x51 +  x52 +  x53 +  x54 +  x55 +  x56 +  x57 +  x58 +  x59 +  x60 +  x61  <= 1
 c27:  x47 +  x48 +  x49 +  x50  <= 1
 c28:  x59  <= 1
 c29:  x3 +  x7 +  x14 +  x21  <= 1
 c30:  x15 +  x20 +  x24 +  x31  <= 1
 c31:  x1 +  x22 +  x29 +  x30 +  x35 +  x37  <= 1
 c32:  x4 +  x5 +  x13 +  x15 +  x58  <= 1
 c33:  x6 +  x30 +  x35  <= 1
 c34:  x3 +  x5 +  x11 +  x30 +  x33 +  x36 +  x49  <= 1
 c35:  x27 +  x31 +  x32 +  x35 +  x44 +  x46 +  x48 +  x54 +  x56  <= 1
 c36:  x38 +  x51 +  x58  <= 1
 c37:  x31 +  x34 +  x36 +  x53 +  x57 +  x60  <= 1
 c38:  x40 +  x41  <= 1
 c39:  x44 +  x45 +  x46  <= 1
 c40:  x0 +  x1 +  x2  <= 1
 c41:  x3 +  x4 +  x5 +  x6 +  x7 +  x8 +  x9 +  x10 +  x11  <= 1
 c42:  x8 +  x16 +  x30 +  x39 +  x51 +  x52 +  x55  <= 1
 c43:  x34 +  x38  <= 1
 c44:  x27 +  x28  <= 1
 c45:  x29 +  x30 +  x31 +  x32 +  x33 +  x34 +  x35 +  x36 +  x37 +  x38 +  x39  <= 1
 c46:  x13 +  x14 +  x15 +  x16 +  x17 +  x18  <= 1
 c47:  x20 +  x21 +  x22 +  x23 +  x24 +  x25 +  x26  <= 1
 c48:  x33 +  x34 +  x51 +  x54  <= 1
 c49:  x1 +  x3 +  x7 +  x9 +  x23 +  x30 +  x35  <= 1
 c50:  x17 +  x23 +  x32 +  x37  <= 1
 c51:  x14 +  x32 +  x39  <= 1
 c52:  x33 +  x53 +  x54 +  x57 +  x61  <= 1
 c53:  x5 +  x8 +  x57  <= 1
 c54:  x16 +  x36 +  x56  <= 1
 c55:  x36 +  x42 +  x55 +  x60  <= 1
 c56:  x5 +  x35  <= 1
 c57:  x13 +  x16 +  x17 +  x30 +  x33 +  x39  <= 1
 c58:  x7 +  x10 +  x26 +  x29 +  x32 +  x34 +  x36 +  x57  <= 1
 c59:  x30 +  x32  <= 1
 c60:  x4 +  x31 +  x34 +  x35 +  x36 +  x47 +  x49 +  x51 +  x53  <= 1
 c61:  x4 +  x30 +  x32 +  x39  <= 1
 c62:  x11 +  x35 +  x36 +  x56  <= 1
 c63:  x21 +  x34  <= 1
 c64:  x16 +  x37 +  x55 +  x59  <= 1
 c65:  x14 +  x34 +  x51 +  x59  <= 1
 c66:  x27 +  x37  <= 1
 c67:  x7 +  x29 +  x30 +  x35 +  x36 +  x38 +  x39 +  x58  <= 1
 c68:  x22 +  x29 +  x30 +  x33 +  x36 +  x38 +  x51 +  x59 +  x61  <= 1
 c69:  x6 +  x31 +  x32 +  x37 +  x38  <= 1
 c70:  x6 +  x31 +  x32 +  x36 +  x53  <= 1
 c71:  x5 +  x9 +  x34 +  x38 +  x39 +  x53  <= 1
 c72:  x29 +  x30 +  x32 +  x35  <= 1
 c73:  x14 +  x30 +  x31 +  x32 +  x34 +  x35 +  x36 +  x44 +  x45 +  x51 +  x55  <= 1
 c74:  x3 +  x8 +  x11 +  x12 +  x33  <= 1
 c75:  x56 +  x57  <= 1
 c76:  x3 +  x4 +  x34  <= 1
 c77:  x10 +  x26 +  x33 +  x34 +  x39 +  x52 +  x61  <= 1
 c78:  x0 +  x7 +  x9 +  x24 +  x25 +  x35 +  x36  <= 1
 c79:  x23 +  x29 +  x30 +  x32 +  x33 +  x34 +  x35 +  x59  <= 1
 c80:  x11 +  x25 +  x31 +  x34 +  x36 +  x37  <= 1
 c81:  x7 +  x18 +  x22 +  x37 +  x61  <= 1
 c82:  x52 +  x54  <= 1
 c83:  x4 +  x8 +  x32 +  x36 +  x52 +  x55 +  x56  <= 1
 c84:  x0 +  x2 +  x31 +  x32 +  x33 +  x39  <= 1
 c85:  x0 +  x1 +  x35 +  x39 +  x47 +  x49 +  x50 +  x56  <= 1
 c86:  x33 +  x39 +  x47 +  x48 +  x52  <= 1
 c87:  x39  <= 1
 c88:  x29 +  x32 +  x35 +  x37 +  x39  <= 1
 c89:  x11 +  x30 +  x31 +  x38 +  x53  <= 1
 c90:  x3 +  x5 +  x24 +  x29 +  x33 +  x38 +  x40 +  x52 +  x54 +  x57  <= 1
 c91:  x8 +  x11 +  x25 +  x33 +  x37 +  x51 +  x52 +  x57  <= 1
 c92:  x10 +  x38 +  x61  <= 1
 c93:  x9 +  x31 +  x36  <= 1
 c94:  x13 +  x18 +  x28 +  x32 +  x33 +  x38 +  x55  <= 1
 c95:  x3 +  x5 +  x9 +  x15 +  x29 +  x31 +  x33 +  x37 +  x38 +  x39 +  x58 +  x60  <= 1
 c96:  x3 +  x6 +  x7 +  x26 +  x28 +  x38 +  x59  <= 1
 c97:  x1 +  x4 +  x6 +  x26 +  x29 +  x33 +  x58  <= 1
 c98:  x6 +  x17 +  x56  <= 1
 c99:  x15 +  x30 +  x55 +  x60  <= 1
 c100:  x58  <= 1
 c101:  x9 +  x18 +  x21 +  x30  <= 1
 c102:  x6 +  x17 +  x31 +  x33 +  x38 +  x55 +  x58  <= 1
 c103:  x21 +  x25  <= 1
 c104:  x6 +  x13 +  x16 +  x20 +  x26 +  x33 +  x50 +  x61  <= 1
 c105:  x9 +  x23 +  x24 +  x38 +  x56  <= 1
 c106:  x4 +  x8  <= 1
 c107:  x3 +  x9 +  x10 +  x20 +  x21 +  x34 +  x35 +  x38 +  x54 +  x57  <= 1
 c108:  x2 +  x10 +  x34 +  x43 +  x52 +  x54 +  x55 +  x60  <= 1
 c109:  x10 +  x22 +  x29 +  x33 +  x34 +  x37 +  x53 +  x61  <= 1
 c110:  x27 +  x28 +  x34 +  x37 +  x52 +  x58  <= 1
 c111:  x10 +  x11 +  x22 +  x32 +  x36  <= 1
 c112:  x2 +  x8 +  x23 +  x26 +  x31 +  x39 +  x54  <= 1
Bounds
 0 <= x0 <= 1
 0 <= x1 <= 1
 0 <= x2 <= 1
 0 <= x3 <= 1
 0 <= x4 <= 1
 0 <= x5 <= 1
 0 <= x6 <= 1
 0 <= x7 <= 1
 0 <= x8 <= 1
 0 <= x9 <= 1
 0 <= x10 <= 1
 0 <= x11 <= 1
 0 <= x12 <= 1
 0 <= x13 <= 1
 0 <= x14 <= 1
 0 <= x15 <= 1
 0 <= x16 <= 1
 0 <= x17 <= 1
 0 <= x18 <= 1
 0 <= x19 <= 1
 0 <= x20 <= 1
 0 <= x21 <= 1
 0 <= x22 <= 1
 0 <= x23 <= 1
 0 <= x24 <= 1
 0 <= x25 <= 1
 0 <= x26 <= 1
 0 <= x27 <= 1
 0 <= x28 <= 1
 0 <= x29 <= 1
 0 <= x30 <= 1
 0 <= x31 <= 1
 0 <= x32 <= 1
 0 <= x33 <= 1
 0 <= x34 <= 1
 0 <= x35 <= 1
 0 <= x36 <= 1
 0 <= x37 <= 1
 0 <= x38 <= 1
 0 <= x39 <= 1
 0 <= x40 <= 1
 0 <= x41 <= 1
 0 <= x42 <= 1
 0 <= x43 <= 1
 0 <= x44 <= 1
 0 <= x45 <= 1
 0 <= x46 <= 1
 0 <= x47 <= 1
 0 <= x48 <= 1
 0 <= x49 <= 1
 0 <= x50 <= 1
 0 <= x51 <= 1
 0 <= x52 <= 1
 0 <= x53 <= 1
 0 <= x54 <= 1
 0 <= x55 <= 1
 0 <= x56 <= 1
 0 <= x57 <= 1
 0 <= x58 <= 1
 0 <= x59 <= 1
 0 <= x60 <= 1
 0 <= x61 <= 1
End